result&benchmarks/Data/Ex1/verify/Output/bresenham-ll_unwindbound1_process_dc_iter1Output/Counterexample.1.smt2
(set-info :source |printed by MathSAT|)
(declare-fun counter@2 () (_ BitVec 32))
(declare-fun |main::v@3| () (_ BitVec 64))
(declare-fun |main::y@3| () (_ BitVec 64))
(declare-fun |main::iVar2@3| () (_ BitVec 32))
(declare-fun |main::bVar1@3| () (_ BitVec 8))
(declare-fun counter@3 () (_ BitVec 32))
(declare-fun |main::__CPAchecker_TMP_0@3| () (_ BitVec 8))
(declare-fun |main::X@2| () (_ BitVec 32))
(declare-fun |main::yx@2| () (_ BitVec 64))
(declare-fun |main::tmp_var_2_int@2| () (_ BitVec 32))
(assert (let ((.def_22 (bvadd (_ bv1 32) counter@2)))(let ((.def_24 (= .def_22 |main::iVar2@3|)))(let ((.def_19 (= |main::y@3| (_ bv0 64))))(let ((.def_16 (= |main::v@3| (_ bv0 64))))(let ((.def_11 (= counter@2 (_ bv0 32))))(let ((.def_17 (and .def_11 .def_16)))(let ((.def_20 (and .def_17 .def_19)))(let ((.def_122 (and .def_20 .def_24)))(let ((.def_25 (bvslt counter@2 (_ bv1 32))))(let ((.def_26 (ite .def_25 (_ bv1 32) (_ bv0 32))))(let ((.def_29 (= .def_26 (_ bv0 32))))(let ((.def_30 (ite .def_29 (_ bv0 8) (_ bv1 8))))(let ((.def_32 (= .def_30 |main::bVar1@3|)))(let ((.def_123 (and .def_32 .def_122)))(let ((.def_35 (= |main::iVar2@3| counter@3)))(let ((.def_124 (and .def_35 .def_123)))(let ((.def_38 (= |main::bVar1@3| |main::__CPAchecker_TMP_0@3|)))(let ((.def_125 (and .def_38 .def_124)))(let ((.def_42 (= |main::__CPAchecker_TMP_0@3| (_ bv0 8))))(let ((.def_45 (not .def_42)))(let ((.def_126 (and .def_45 .def_125)))(let ((.def_58 ((_ sign_extend 32) |main::tmp_var_2_int@2|)))(let ((.def_69 (bvneg .def_58)))(let ((.def_59 (bvmul |main::v@3| .def_58)))(let ((.def_61 (bvneg .def_59)))(let ((.def_56 (bvmul |main::y@3| |main::yx@2|)))(let ((.def_62 (bvadd .def_56 .def_61)))(let ((.def_67 (bvshl .def_62 (_ bv1 64))))(let ((.def_70 (bvadd .def_67 .def_69)))(let ((.def_50 ((_ extract 31 0) |main::yx@2|)))(let ((.def_54 (bvshl .def_50 (_ bv1 32))))(let ((.def_55 ((_ sign_extend 32) .def_54)))(let ((.def_71 (bvadd .def_55 .def_70)))(let ((.def_48 ((_ sign_extend 32) |main::X@2|)))(let ((.def_72 (= .def_48 .def_71)))(let ((.def_73 (not .def_72)))(let ((.def_127 (and .def_73 .def_126))).def_127))))))))))))))))))))))))))))))))))))))