result&benchmarks/Data/Ex1/verify/Output/bresenham-ll_unwindbound1_process_dc_iter1Output/Counterexample.1.txt
none:	N37 -{INIT GLOBAL VARS}-> N111
/usr/include/assert.h, lines 69-71:	N111 -{void __assert_fail(const char *__assertion, const char *__file, unsigned int __line, const char *__function);}-> N112
/usr/include/assert.h, lines 74-76:	N112 -{void __assert_perror_fail(int __errnum, const char *__file, unsigned int __line, const char *__function);}-> N113
/usr/include/assert.h, lines 81-82:	N113 -{void __assert(const char *__assertion, const char *__file, int __line);}-> N114
/usr/include/x86_64-linux-gnu/bits/types.h, line 31:	N114 -{typedef unsigned char __u_char;}-> N115
/usr/include/x86_64-linux-gnu/bits/types.h, line 32:	N115 -{typedef unsigned short int __u_short;}-> N116
/usr/include/x86_64-linux-gnu/bits/types.h, line 33:	N116 -{typedef unsigned int __u_int;}-> N117
/usr/include/x86_64-linux-gnu/bits/types.h, line 34:	N117 -{typedef unsigned long int __u_long;}-> N118
/usr/include/x86_64-linux-gnu/bits/types.h, line 37:	N118 -{typedef signed char __int8_t;}-> N119
/usr/include/x86_64-linux-gnu/bits/types.h, line 38:	N119 -{typedef unsigned char __uint8_t;}-> N120
/usr/include/x86_64-linux-gnu/bits/types.h, line 39:	N120 -{typedef signed short int __int16_t;}-> N121
/usr/include/x86_64-linux-gnu/bits/types.h, line 40:	N121 -{typedef unsigned short int __uint16_t;}-> N122
/usr/include/x86_64-linux-gnu/bits/types.h, line 41:	N122 -{typedef signed int __int32_t;}-> N123
/usr/include/x86_64-linux-gnu/bits/types.h, line 42:	N123 -{typedef unsigned int __uint32_t;}-> N124
/usr/include/x86_64-linux-gnu/bits/types.h, line 44:	N124 -{typedef signed long int __int64_t;}-> N125
/usr/include/x86_64-linux-gnu/bits/types.h, line 45:	N125 -{typedef unsigned long int __uint64_t;}-> N126
/usr/include/x86_64-linux-gnu/bits/types.h, line 52:	N126 -{typedef __int8_t __int_least8_t;}-> N127
/usr/include/x86_64-linux-gnu/bits/types.h, line 53:	N127 -{typedef __uint8_t __uint_least8_t;}-> N128
/usr/include/x86_64-linux-gnu/bits/types.h, line 54:	N128 -{typedef __int16_t __int_least16_t;}-> N129
/usr/include/x86_64-linux-gnu/bits/types.h, line 55:	N129 -{typedef __uint16_t __uint_least16_t;}-> N130
/usr/include/x86_64-linux-gnu/bits/types.h, line 56:	N130 -{typedef __int32_t __int_least32_t;}-> N131
/usr/include/x86_64-linux-gnu/bits/types.h, line 57:	N131 -{typedef __uint32_t __uint_least32_t;}-> N132
/usr/include/x86_64-linux-gnu/bits/types.h, line 58:	N132 -{typedef __int64_t __int_least64_t;}-> N133
/usr/include/x86_64-linux-gnu/bits/types.h, line 59:	N133 -{typedef __uint64_t __uint_least64_t;}-> N134
/usr/include/x86_64-linux-gnu/bits/types.h, line 63:	N134 -{typedef long int __quad_t;}-> N135
/usr/include/x86_64-linux-gnu/bits/types.h, line 64:	N135 -{typedef unsigned long int __u_quad_t;}-> N136
/usr/include/x86_64-linux-gnu/bits/types.h, line 72:	N136 -{typedef long int __intmax_t;}-> N137
/usr/include/x86_64-linux-gnu/bits/types.h, line 73:	N137 -{typedef unsigned long int __uintmax_t;}-> N138
/usr/include/x86_64-linux-gnu/bits/types.h, line 145:	N138 -{typedef unsigned long int __dev_t;}-> N139
/usr/include/x86_64-linux-gnu/bits/types.h, line 146:	N139 -{typedef unsigned int __uid_t;}-> N140
/usr/include/x86_64-linux-gnu/bits/types.h, line 147:	N140 -{typedef unsigned int __gid_t;}-> N141
/usr/include/x86_64-linux-gnu/bits/types.h, line 148:	N141 -{typedef unsigned long int __ino_t;}-> N142
/usr/include/x86_64-linux-gnu/bits/types.h, line 149:	N142 -{typedef unsigned long int __ino64_t;}-> N143
/usr/include/x86_64-linux-gnu/bits/types.h, line 150:	N143 -{typedef unsigned int __mode_t;}-> N144
/usr/include/x86_64-linux-gnu/bits/types.h, line 151:	N144 -{typedef unsigned long int __nlink_t;}-> N145
/usr/include/x86_64-linux-gnu/bits/types.h, line 152:	N145 -{typedef long int __off_t;}-> N146
/usr/include/x86_64-linux-gnu/bits/types.h, line 153:	N146 -{typedef long int __off64_t;}-> N147
/usr/include/x86_64-linux-gnu/bits/types.h, line 154:	N147 -{typedef int __pid_t;}-> N148
/usr/include/x86_64-linux-gnu/bits/types.h, line 155:	N148 -{struct __anon_type___fsid_t {   int __val[2]; } ;}-> N149
/usr/include/x86_64-linux-gnu/bits/types.h, line 155:	N149 -{typedef struct __anon_type___fsid_t __fsid_t;}-> N150
/usr/include/x86_64-linux-gnu/bits/types.h, line 156:	N150 -{typedef long int __clock_t;}-> N151
/usr/include/x86_64-linux-gnu/bits/types.h, line 157:	N151 -{typedef unsigned long int __rlim_t;}-> N152
/usr/include/x86_64-linux-gnu/bits/types.h, line 158:	N152 -{typedef unsigned long int __rlim64_t;}-> N153
/usr/include/x86_64-linux-gnu/bits/types.h, line 159:	N153 -{typedef unsigned int __id_t;}-> N154
/usr/include/x86_64-linux-gnu/bits/types.h, line 160:	N154 -{typedef long int __time_t;}-> N155
/usr/include/x86_64-linux-gnu/bits/types.h, line 161:	N155 -{typedef unsigned int __useconds_t;}-> N156
/usr/include/x86_64-linux-gnu/bits/types.h, line 162:	N156 -{typedef long int __suseconds_t;}-> N157
/usr/include/x86_64-linux-gnu/bits/types.h, line 163:	N157 -{typedef long int __suseconds64_t;}-> N158
/usr/include/x86_64-linux-gnu/bits/types.h, line 165:	N158 -{typedef int __daddr_t;}-> N159
/usr/include/x86_64-linux-gnu/bits/types.h, line 166:	N159 -{typedef int __key_t;}-> N160
/usr/include/x86_64-linux-gnu/bits/types.h, line 169:	N160 -{typedef int __clockid_t;}-> N161
/usr/include/x86_64-linux-gnu/bits/types.h, line 172:	N161 -{typedef void *__timer_t;}-> N162
/usr/include/x86_64-linux-gnu/bits/types.h, line 175:	N162 -{typedef long int __blksize_t;}-> N163
/usr/include/x86_64-linux-gnu/bits/types.h, line 180:	N163 -{typedef long int __blkcnt_t;}-> N164
/usr/include/x86_64-linux-gnu/bits/types.h, line 181:	N164 -{typedef long int __blkcnt64_t;}-> N165
/usr/include/x86_64-linux-gnu/bits/types.h, line 184:	N165 -{typedef unsigned long int __fsblkcnt_t;}-> N166
/usr/include/x86_64-linux-gnu/bits/types.h, line 185:	N166 -{typedef unsigned long int __fsblkcnt64_t;}-> N167
/usr/include/x86_64-linux-gnu/bits/types.h, line 188:	N167 -{typedef unsigned long int __fsfilcnt_t;}-> N168
/usr/include/x86_64-linux-gnu/bits/types.h, line 189:	N168 -{typedef unsigned long int __fsfilcnt64_t;}-> N169
/usr/include/x86_64-linux-gnu/bits/types.h, line 192:	N169 -{typedef long int __fsword_t;}-> N170
/usr/include/x86_64-linux-gnu/bits/types.h, line 194:	N170 -{typedef long int __ssize_t;}-> N171
/usr/include/x86_64-linux-gnu/bits/types.h, line 197:	N171 -{typedef long int __syscall_slong_t;}-> N172
/usr/include/x86_64-linux-gnu/bits/types.h, line 199:	N172 -{typedef unsigned long int __syscall_ulong_t;}-> N173
/usr/include/x86_64-linux-gnu/bits/types.h, line 203:	N173 -{typedef __off64_t __loff_t;}-> N174
/usr/include/x86_64-linux-gnu/bits/types.h, line 204:	N174 -{typedef char *__caddr_t;}-> N175
/usr/include/x86_64-linux-gnu/bits/types.h, line 207:	N175 -{typedef long int __intptr_t;}-> N176
/usr/include/x86_64-linux-gnu/bits/types.h, line 210:	N176 -{typedef unsigned int __socklen_t;}-> N177
/usr/include/x86_64-linux-gnu/bits/types.h, line 215:	N177 -{typedef int __sig_atomic_t;}-> N178
/usr/include/x86_64-linux-gnu/bits/stdint-intn.h, line 24:	N178 -{typedef __int8_t int8_t;}-> N179
/usr/include/x86_64-linux-gnu/bits/stdint-intn.h, line 25:	N179 -{typedef __int16_t int16_t;}-> N180
/usr/include/x86_64-linux-gnu/bits/stdint-intn.h, line 26:	N180 -{typedef __int32_t int32_t;}-> N181
/usr/include/x86_64-linux-gnu/bits/stdint-intn.h, line 27:	N181 -{typedef __int64_t int64_t;}-> N182
/usr/include/x86_64-linux-gnu/bits/stdint-uintn.h, line 24:	N182 -{typedef __uint8_t uint8_t;}-> N183
/usr/include/x86_64-linux-gnu/bits/stdint-uintn.h, line 25:	N183 -{typedef __uint16_t uint16_t;}-> N184
/usr/include/x86_64-linux-gnu/bits/stdint-uintn.h, line 26:	N184 -{typedef __uint32_t uint32_t;}-> N185
/usr/include/x86_64-linux-gnu/bits/stdint-uintn.h, line 27:	N185 -{typedef __uint64_t uint64_t;}-> N186
/usr/include/stdint.h, line 43:	N186 -{typedef __int_least8_t int_least8_t;}-> N187
/usr/include/stdint.h, line 44:	N187 -{typedef __int_least16_t int_least16_t;}-> N188
/usr/include/stdint.h, line 45:	N188 -{typedef __int_least32_t int_least32_t;}-> N189
/usr/include/stdint.h, line 46:	N189 -{typedef __int_least64_t int_least64_t;}-> N190
/usr/include/stdint.h, line 49:	N190 -{typedef __uint_least8_t uint_least8_t;}-> N191
/usr/include/stdint.h, line 50:	N191 -{typedef __uint_least16_t uint_least16_t;}-> N192
/usr/include/stdint.h, line 51:	N192 -{typedef __uint_least32_t uint_least32_t;}-> N193
/usr/include/stdint.h, line 52:	N193 -{typedef __uint_least64_t uint_least64_t;}-> N194
/usr/include/stdint.h, line 58:	N194 -{typedef signed char int_fast8_t;}-> N195
/usr/include/stdint.h, line 60:	N195 -{typedef long int int_fast16_t;}-> N196
/usr/include/stdint.h, line 61:	N196 -{typedef long int int_fast32_t;}-> N197
/usr/include/stdint.h, line 62:	N197 -{typedef long int int_fast64_t;}-> N198
/usr/include/stdint.h, line 71:	N198 -{typedef unsigned char uint_fast8_t;}-> N199
/usr/include/stdint.h, line 73:	N199 -{typedef unsigned long int uint_fast16_t;}-> N200
/usr/include/stdint.h, line 74:	N200 -{typedef unsigned long int uint_fast32_t;}-> N201
/usr/include/stdint.h, line 75:	N201 -{typedef unsigned long int uint_fast64_t;}-> N202
/usr/include/stdint.h, line 87:	N202 -{typedef long int intptr_t;}-> N203
/usr/include/stdint.h, line 90:	N203 -{typedef unsigned long int uintptr_t;}-> N204
/usr/include/stdint.h, line 101:	N204 -{typedef __intmax_t intmax_t;}-> N205
/usr/include/stdint.h, line 102:	N205 -{typedef __uintmax_t uintmax_t;}-> N206
/usr/lib/gcc/x86_64-linux-gnu/11/include/stddef.h, line 209:	N206 -{typedef unsigned long int size_t;}-> N207
/usr/lib/gcc/x86_64-linux-gnu/11/include/stddef.h, line 321:	N207 -{typedef int wchar_t;}-> N208
/usr/include/stdlib.h, lines 59-63:	N208 -{struct __anon_type_div_t {   int quot;   int rem; } ;}-> N209
/usr/include/stdlib.h, lines 59-63:	N209 -{typedef struct __anon_type_div_t div_t;}-> N210
/usr/include/stdlib.h, lines 67-71:	N210 -{struct __anon_type_ldiv_t {   long int quot;   long int rem; } ;}-> N211
/usr/include/stdlib.h, lines 67-71:	N211 -{typedef struct __anon_type_ldiv_t ldiv_t;}-> N212
/usr/include/stdlib.h, lines 77-81:	N212 -{struct __anon_type_lldiv_t {   long long int quot;   long long int rem; } ;}-> N213
/usr/include/stdlib.h, lines 77-81:	N213 -{typedef struct __anon_type_lldiv_t lldiv_t;}-> N214
/usr/include/stdlib.h, line 98:	N214 -{size_t __ctype_get_mb_cur_max();}-> N215
/usr/include/stdlib.h, lines 102-103:	N215 -{double atof(const char *__nptr);}-> N216
/usr/include/stdlib.h, lines 105-106:	N216 -{int atoi(const char *__nptr);}-> N217
/usr/include/stdlib.h, lines 108-109:	N217 -{long int atol(const char *__nptr);}-> N218
/usr/include/stdlib.h, lines 113-114:	N218 -{long long int atoll(const char *__nptr);}-> N219
/usr/include/stdlib.h, lines 118-120:	N219 -{double strtod(const char *__nptr, char **__endptr);}-> N220
/usr/include/stdlib.h, lines 124-125:	N220 -{float strtof(const char *__nptr, char **__endptr);}-> N221
/usr/include/stdlib.h, lines 127-129:	N221 -{long double strtold(const char *__nptr, char **__endptr);}-> N222
/usr/include/stdlib.h, lines 177-179:	N222 -{long int strtol(const char *__nptr, char **__endptr, int __base);}-> N223
/usr/include/stdlib.h, lines 181-183:	N223 -{unsigned long int strtoul(const char *__nptr, char **__endptr, int __base);}-> N224
/usr/include/stdlib.h, lines 188-190:	N224 -{long long int strtoq(const char *__nptr, char **__endptr, int __base);}-> N225
/usr/include/stdlib.h, lines 193-195:	N225 -{unsigned long long int strtouq(const char *__nptr, char **__endptr, int __base);}-> N226
/usr/include/stdlib.h, lines 201-203:	N226 -{long long int strtoll(const char *__nptr, char **__endptr, int __base);}-> N227
/usr/include/stdlib.h, lines 206-208:	N227 -{unsigned long long int strtoull(const char *__nptr, char **__endptr, int __base);}-> N228
/usr/include/stdlib.h, line 386:	N228 -{char *l64a(long int __n);}-> N229
/usr/include/stdlib.h, lines 389-390:	N229 -{long int a64l(const char *__s);}-> N230
/usr/include/x86_64-linux-gnu/sys/types.h, line 33:	N230 -{typedef __u_char u_char;}-> N231
/usr/include/x86_64-linux-gnu/sys/types.h, line 34:	N231 -{typedef __u_short u_short;}-> N232
/usr/include/x86_64-linux-gnu/sys/types.h, line 35:	N232 -{typedef __u_int u_int;}-> N233
/usr/include/x86_64-linux-gnu/sys/types.h, line 36:	N233 -{typedef __u_long u_long;}-> N234
/usr/include/x86_64-linux-gnu/sys/types.h, line 37:	N234 -{typedef __quad_t quad_t;}-> N235
/usr/include/x86_64-linux-gnu/sys/types.h, line 38:	N235 -{typedef __u_quad_t u_quad_t;}-> N236
/usr/include/x86_64-linux-gnu/sys/types.h, line 39:	N236 -{typedef __fsid_t fsid_t;}-> N237
/usr/include/x86_64-linux-gnu/sys/types.h, line 42:	N237 -{typedef __loff_t loff_t;}-> N238
/usr/include/x86_64-linux-gnu/sys/types.h, line 47:	N238 -{typedef __ino_t ino_t;}-> N239
/usr/include/x86_64-linux-gnu/sys/types.h, line 59:	N239 -{typedef __dev_t dev_t;}-> N240
/usr/include/x86_64-linux-gnu/sys/types.h, line 64:	N240 -{typedef __gid_t gid_t;}-> N241
/usr/include/x86_64-linux-gnu/sys/types.h, line 69:	N241 -{typedef __mode_t mode_t;}-> N242
/usr/include/x86_64-linux-gnu/sys/types.h, line 74:	N242 -{typedef __nlink_t nlink_t;}-> N243
/usr/include/x86_64-linux-gnu/sys/types.h, line 79:	N243 -{typedef __uid_t uid_t;}-> N244
/usr/include/x86_64-linux-gnu/sys/types.h, line 85:	N244 -{typedef __off_t off_t;}-> N245
/usr/include/x86_64-linux-gnu/sys/types.h, line 97:	N245 -{typedef __pid_t pid_t;}-> N246
/usr/include/x86_64-linux-gnu/sys/types.h, line 103:	N246 -{typedef __id_t id_t;}-> N247
/usr/include/x86_64-linux-gnu/sys/types.h, line 108:	N247 -{typedef __ssize_t ssize_t;}-> N248
/usr/include/x86_64-linux-gnu/sys/types.h, line 114:	N248 -{typedef __daddr_t daddr_t;}-> N249
/usr/include/x86_64-linux-gnu/sys/types.h, line 115:	N249 -{typedef __caddr_t caddr_t;}-> N250
/usr/include/x86_64-linux-gnu/sys/types.h, line 121:	N250 -{typedef __key_t key_t;}-> N251
/usr/include/x86_64-linux-gnu/bits/types/clock_t.h, line 7:	N251 -{typedef __clock_t clock_t;}-> N252
/usr/include/x86_64-linux-gnu/bits/types/clockid_t.h, line 7:	N252 -{typedef __clockid_t clockid_t;}-> N253
/usr/include/x86_64-linux-gnu/bits/types/time_t.h, line 10:	N253 -{typedef __time_t time_t;}-> N254
/usr/include/x86_64-linux-gnu/bits/types/timer_t.h, line 7:	N254 -{typedef __timer_t timer_t;}-> N255
/usr/include/x86_64-linux-gnu/sys/types.h, line 148:	N255 -{typedef unsigned long int ulong;}-> N256
/usr/include/x86_64-linux-gnu/sys/types.h, line 149:	N256 -{typedef unsigned short int ushort;}-> N257
/usr/include/x86_64-linux-gnu/sys/types.h, line 150:	N257 -{typedef unsigned int uint;}-> N258
/usr/include/x86_64-linux-gnu/sys/types.h, line 158:	N258 -{typedef __uint8_t u_int8_t;}-> N259
/usr/include/x86_64-linux-gnu/sys/types.h, line 159:	N259 -{typedef __uint16_t u_int16_t;}-> N260
/usr/include/x86_64-linux-gnu/sys/types.h, line 160:	N260 -{typedef __uint32_t u_int32_t;}-> N261
/usr/include/x86_64-linux-gnu/sys/types.h, line 161:	N261 -{typedef __uint64_t u_int64_t;}-> N262
/usr/include/x86_64-linux-gnu/sys/types.h, line 164:	N262 -{typedef signed int register_t;}-> N263
/usr/include/x86_64-linux-gnu/bits/byteswap.h, lines 33-41:	N263 -{__uint16_t __bswap_16(__uint16_t __bsx);}-> N264
/usr/include/x86_64-linux-gnu/bits/byteswap.h, lines 48-56:	N264 -{__uint32_t __bswap_32(__uint32_t __bsx);}-> N265
/usr/include/x86_64-linux-gnu/bits/byteswap.h, lines 69-77:	N265 -{__uint64_t __bswap_64(__uint64_t __bsx);}-> N266
/usr/include/x86_64-linux-gnu/bits/uintn-identity.h, lines 32-36:	N266 -{__uint16_t __uint16_identity(__uint16_t __x);}-> N267
/usr/include/x86_64-linux-gnu/bits/uintn-identity.h, lines 38-42:	N267 -{__uint32_t __uint32_identity(__uint32_t __x);}-> N268
/usr/include/x86_64-linux-gnu/bits/uintn-identity.h, lines 44-48:	N268 -{__uint64_t __uint64_identity(__uint64_t __x);}-> N269
/usr/include/x86_64-linux-gnu/bits/types/__sigset_t.h, lines 5-8:	N269 -{struct __anon_type___sigset_t {   unsigned long int __val[32UL]; } ;}-> N270
/usr/include/x86_64-linux-gnu/bits/types/__sigset_t.h, lines 5-8:	N270 -{typedef struct __anon_type___sigset_t __sigset_t;}-> N271
/usr/include/x86_64-linux-gnu/bits/types/sigset_t.h, line 7:	N271 -{typedef __sigset_t sigset_t;}-> N272
/usr/include/x86_64-linux-gnu/bits/types/struct_timeval.h, lines 8-17:	N272 -{struct timeval {   __time_t tv_sec;   __suseconds_t tv_usec; } ;}-> N273
/usr/include/x86_64-linux-gnu/bits/types/struct_timespec.h, lines 11-31:	N273 -{struct timespec {   __time_t tv_sec;   __syscall_slong_t tv_nsec; } ;}-> N274
/usr/include/x86_64-linux-gnu/sys/select.h, line 43:	N274 -{typedef __suseconds_t suseconds_t;}-> N275
/usr/include/x86_64-linux-gnu/sys/select.h, line 49:	N275 -{typedef long int __fd_mask;}-> N276
/usr/include/x86_64-linux-gnu/sys/select.h, lines 59-70:	N276 -{struct __anon_type_fd_set {   __fd_mask __fds_bits[32]; } ;}-> N277
/usr/include/x86_64-linux-gnu/sys/select.h, lines 59-70:	N277 -{typedef struct __anon_type_fd_set fd_set;}-> N278
/usr/include/x86_64-linux-gnu/sys/select.h, line 77:	N278 -{typedef __fd_mask fd_mask;}-> N279
/usr/include/x86_64-linux-gnu/sys/select.h, lines 102-105:	N279 -{int select(int __nfds, fd_set *__readfds, fd_set *__writefds, fd_set *__exceptfds, struct timeval *__timeout);}-> N280
/usr/include/x86_64-linux-gnu/sys/select.h, lines 127-131:	N280 -{int pselect(int __nfds, fd_set *__readfds, fd_set *__writefds, fd_set *__exceptfds, const struct timespec *__timeout, const __sigset_t *__sigmask);}-> N281
/usr/include/x86_64-linux-gnu/sys/types.h, line 185:	N281 -{typedef __blksize_t blksize_t;}-> N282
/usr/include/x86_64-linux-gnu/sys/types.h, line 192:	N282 -{typedef __blkcnt_t blkcnt_t;}-> N283
/usr/include/x86_64-linux-gnu/sys/types.h, line 196:	N283 -{typedef __fsblkcnt_t fsblkcnt_t;}-> N284
/usr/include/x86_64-linux-gnu/sys/types.h, line 200:	N284 -{typedef __fsfilcnt_t fsfilcnt_t;}-> N285
/usr/include/x86_64-linux-gnu/bits/atomic_wide_counter.h, lines 28-32:	N285 -{struct __anon_type_0 {   unsigned int __low;   unsigned int __high; } ;}-> N286
/usr/include/x86_64-linux-gnu/bits/atomic_wide_counter.h, lines 25-33:	N286 -{union __anon_type___atomic_wide_counter {   unsigned long long int __value64;   struct __anon_type_0 __value32; } ;}-> N287
/usr/include/x86_64-linux-gnu/bits/atomic_wide_counter.h, lines 25-33:	N287 -{typedef union __anon_type___atomic_wide_counter __atomic_wide_counter;}-> N288
/usr/include/x86_64-linux-gnu/bits/thread-shared-types.h, lines 51-55:	N288 -{struct __pthread_internal_list {   struct __pthread_internal_list *__prev;   struct __pthread_internal_list *__next; } ;}-> N289
/usr/include/x86_64-linux-gnu/bits/thread-shared-types.h, lines 51-55:	N289 -{typedef struct __pthread_internal_list __pthread_list_t;}-> N290
/usr/include/x86_64-linux-gnu/bits/thread-shared-types.h, lines 57-60:	N290 -{struct __pthread_internal_slist {   struct __pthread_internal_slist *__next; } ;}-> N291
/usr/include/x86_64-linux-gnu/bits/thread-shared-types.h, lines 57-60:	N291 -{typedef struct __pthread_internal_slist __pthread_slist_t;}-> N292
/usr/include/x86_64-linux-gnu/bits/struct_mutex.h, lines 22-53:	N292 -{struct __pthread_mutex_s {   int __lock;   unsigned int __count;   int __owner;   unsigned int __nusers;   int __kind;   short __spins;   short __elision;   __pthread_list_t __list; } ;}-> N293
/usr/include/x86_64-linux-gnu/bits/struct_rwlock.h, lines 23-55:	N293 -{struct __pthread_rwlock_arch_t {   unsigned int __readers;   unsigned int __writers;   unsigned int __wrphase_futex;   unsigned int __writers_futex;   unsigned int __pad3;   unsigned int __pad4;   int __cur_writer;   int __shared;   signed char __rwelision;   unsigned char __pad1[7];   unsigned long int __pad2;   unsigned int __flags; } ;}-> N294
/usr/include/x86_64-linux-gnu/bits/thread-shared-types.h, lines 94-103:	N294 -{struct __pthread_cond_s {   __atomic_wide_counter __wseq;   __atomic_wide_counter __g1_start;   unsigned int __g_refs[2];   unsigned int __g_size[2];   unsigned int __g1_orig_size;   unsigned int __wrefs;   unsigned int __g_signals[2]; } ;}-> N295
/usr/include/x86_64-linux-gnu/bits/thread-shared-types.h, line 105:	N295 -{typedef unsigned int __tss_t;}-> N296
/usr/include/x86_64-linux-gnu/bits/thread-shared-types.h, line 106:	N296 -{typedef unsigned long int __thrd_t;}-> N297
/usr/include/x86_64-linux-gnu/bits/thread-shared-types.h, lines 108-111:	N297 -{struct __anon_type___once_flag {   int __data; } ;}-> N298
/usr/include/x86_64-linux-gnu/bits/thread-shared-types.h, lines 108-111:	N298 -{typedef struct __anon_type___once_flag __once_flag;}-> N299
/usr/include/x86_64-linux-gnu/bits/pthreadtypes.h, line 27:	N299 -{typedef unsigned long int pthread_t;}-> N300
/usr/include/x86_64-linux-gnu/bits/pthreadtypes.h, lines 32-36:	N300 -{union __anon_type_pthread_mutexattr_t {   char __size[4];   int __align; } ;}-> N301
/usr/include/x86_64-linux-gnu/bits/pthreadtypes.h, lines 32-36:	N301 -{typedef union __anon_type_pthread_mutexattr_t pthread_mutexattr_t;}-> N302
/usr/include/x86_64-linux-gnu/bits/pthreadtypes.h, lines 41-45:	N302 -{union __anon_type_pthread_condattr_t {   char __size[4];   int __align; } ;}-> N303
/usr/include/x86_64-linux-gnu/bits/pthreadtypes.h, lines 41-45:	N303 -{typedef union __anon_type_pthread_mutexattr_t pthread_condattr_t;}-> N304
/usr/include/x86_64-linux-gnu/bits/pthreadtypes.h, line 49:	N304 -{typedef unsigned int pthread_key_t;}-> N305
/usr/include/x86_64-linux-gnu/bits/pthreadtypes.h, line 53:	N305 -{typedef int pthread_once_t;}-> N306
/usr/include/x86_64-linux-gnu/bits/pthreadtypes.h, lines 56-60:	N306 -{union pthread_attr_t {   char __size[56];   long int __align; } ;}-> N307
/usr/include/x86_64-linux-gnu/bits/pthreadtypes.h, line 62:	N307 -{typedef union pthread_attr_t pthread_attr_t;}-> N308
/usr/include/x86_64-linux-gnu/bits/pthreadtypes.h, lines 67-72:	N308 -{union __anon_type_pthread_mutex_t {   struct __pthread_mutex_s __data;   char __size[40];   long int __align; } ;}-> N309
/usr/include/x86_64-linux-gnu/bits/pthreadtypes.h, lines 67-72:	N309 -{typedef union __anon_type_pthread_mutex_t pthread_mutex_t;}-> N310
/usr/include/x86_64-linux-gnu/bits/pthreadtypes.h, lines 75-80:	N310 -{union __anon_type_pthread_cond_t {   struct __pthread_cond_s __data;   char __size[48];   long long int __align; } ;}-> N311
/usr/include/x86_64-linux-gnu/bits/pthreadtypes.h, lines 75-80:	N311 -{typedef union __anon_type_pthread_cond_t pthread_cond_t;}-> N312
/usr/include/x86_64-linux-gnu/bits/pthreadtypes.h, lines 86-91:	N312 -{union __anon_type_pthread_rwlock_t {   struct __pthread_rwlock_arch_t __data;   char __size[56];   long int __align; } ;}-> N313
/usr/include/x86_64-linux-gnu/bits/pthreadtypes.h, lines 86-91:	N313 -{typedef union __anon_type_pthread_rwlock_t pthread_rwlock_t;}-> N314
/usr/include/x86_64-linux-gnu/bits/pthreadtypes.h, lines 93-97:	N314 -{union __anon_type_pthread_rwlockattr_t {   char __size[8];   long int __align; } ;}-> N315
/usr/include/x86_64-linux-gnu/bits/pthreadtypes.h, lines 93-97:	N315 -{typedef union __anon_type_pthread_rwlockattr_t pthread_rwlockattr_t;}-> N316
/usr/include/x86_64-linux-gnu/bits/pthreadtypes.h, line 103:	N316 -{typedef volatile int pthread_spinlock_t;}-> N317
/usr/include/x86_64-linux-gnu/bits/pthreadtypes.h, lines 108-112:	N317 -{union __anon_type_pthread_barrier_t {   char __size[32];   long int __align; } ;}-> N318
/usr/include/x86_64-linux-gnu/bits/pthreadtypes.h, lines 108-112:	N318 -{typedef union __anon_type_pthread_barrier_t pthread_barrier_t;}-> N319
/usr/include/x86_64-linux-gnu/bits/pthreadtypes.h, lines 114-118:	N319 -{union __anon_type_pthread_barrierattr_t {   char __size[4];   int __align; } ;}-> N320
/usr/include/x86_64-linux-gnu/bits/pthreadtypes.h, lines 114-118:	N320 -{typedef union __anon_type_pthread_mutexattr_t pthread_barrierattr_t;}-> N321
/usr/include/stdlib.h, line 402:	N321 -{long int random();}-> N322
/usr/include/stdlib.h, line 405:	N322 -{void srandom(unsigned int __seed);}-> N323
/usr/include/stdlib.h, lines 411-412:	N323 -{char *initstate(unsigned int __seed, char *__statebuf, size_t __statelen);}-> N324
/usr/include/stdlib.h, line 416:	N324 -{char *setstate(char *__statebuf);}-> N325
/usr/include/stdlib.h, lines 424-433:	N325 -{struct random_data {   int32_t *fptr;   int32_t *rptr;   int32_t *state;   int rand_type;   int rand_deg;   int rand_sep;   int32_t *end_ptr; } ;}-> N326
/usr/include/stdlib.h, lines 435-436:	N326 -{int random_r(struct random_data *__buf, int32_t *__result);}-> N327
/usr/include/stdlib.h, lines 438-439:	N327 -{int srandom_r(unsigned int __seed, struct random_data *__buf);}-> N328
/usr/include/stdlib.h, lines 441-444:	N328 -{int initstate_r(unsigned int __seed, char *__statebuf, size_t __statelen, struct random_data *__buf);}-> N329
/usr/include/stdlib.h, lines 446-448:	N329 -{int setstate_r(char *__statebuf, struct random_data *__buf);}-> N330
/usr/include/stdlib.h, line 454:	N330 -{int rand();}-> N331
/usr/include/stdlib.h, line 456:	N331 -{void srand(unsigned int __seed);}-> N332
/usr/include/stdlib.h, line 460:	N332 -{int rand_r(unsigned int *__seed);}-> N333
/usr/include/stdlib.h, line 468:	N333 -{double drand48();}-> N334
/usr/include/stdlib.h, line 469:	N334 -{double erand48(unsigned short int __xsubi[3]);}-> N335
/usr/include/stdlib.h, line 472:	N335 -{long int lrand48();}-> N336
/usr/include/stdlib.h, lines 473-474:	N336 -{long int nrand48(unsigned short int __xsubi[3]);}-> N337
/usr/include/stdlib.h, line 477:	N337 -{long int mrand48();}-> N338
/usr/include/stdlib.h, lines 478-479:	N338 -{long int jrand48(unsigned short int __xsubi[3]);}-> N339
/usr/include/stdlib.h, line 482:	N339 -{void srand48(long int __seedval);}-> N340
/usr/include/stdlib.h, lines 483-484:	N340 -{unsigned short int *seed48(unsigned short int __seed16v[3]);}-> N341
/usr/include/stdlib.h, line 485:	N341 -{void lcong48(unsigned short int __param[7]);}-> N342
/usr/include/stdlib.h, lines 491-499:	N342 -{struct drand48_data {   unsigned short int __x[3];   unsigned short int __old_x[3];   unsigned short int __c;   unsigned short int __init;   unsigned long long int __a; } ;}-> N343
/usr/include/stdlib.h, lines 502-503:	N343 -{int drand48_r(struct drand48_data *__buffer, double *__result);}-> N344
/usr/include/stdlib.h, lines 504-506:	N344 -{int erand48_r(unsigned short int __xsubi[3], struct drand48_data *__buffer, double *__result);}-> N345
/usr/include/stdlib.h, lines 509-511:	N345 -{int lrand48_r(struct drand48_data *__buffer, long int *__result);}-> N346
/usr/include/stdlib.h, lines 512-515:	N346 -{int nrand48_r(unsigned short int __xsubi[3], struct drand48_data *__buffer, long int *__result);}-> N347
/usr/include/stdlib.h, lines 518-520:	N347 -{int mrand48_r(struct drand48_data *__buffer, long int *__result);}-> N348
/usr/include/stdlib.h, lines 521-524:	N348 -{int jrand48_r(unsigned short int __xsubi[3], struct drand48_data *__buffer, long int *__result);}-> N349
/usr/include/stdlib.h, lines 527-528:	N349 -{int srand48_r(long int __seedval, struct drand48_data *__buffer);}-> N350
/usr/include/stdlib.h, lines 530-531:	N350 -{int seed48_r(unsigned short int __seed16v[3], struct drand48_data *__buffer);}-> N351
/usr/include/stdlib.h, lines 533-535:	N351 -{int lcong48_r(unsigned short int __param[7], struct drand48_data *__buffer);}-> N352
/usr/include/stdlib.h, lines 540-541:	N352 -{void *malloc(size_t __size);}-> N353
/usr/include/stdlib.h, lines 543-544:	N353 -{void *calloc(size_t __nmemb, size_t __size);}-> N354
/usr/include/stdlib.h, lines 551-552:	N354 -{void *realloc(void *__ptr, size_t __size);}-> N355
/usr/include/stdlib.h, line 555:	N355 -{void free(void *__ptr);}-> N356
/usr/include/stdlib.h, lines 563-566:	N356 -{void *reallocarray(void *__ptr, size_t __nmemb, size_t __size);}-> N357
/usr/include/alloca.h, line 32:	N357 -{void *alloca(size_t __size);}-> N358
/usr/include/stdlib.h, lines 580-581:	N358 -{void *valloc(size_t __size);}-> N359
/usr/include/stdlib.h, lines 586-587:	N359 -{int posix_memalign(void **__memptr, size_t __alignment, size_t __size);}-> N360
/usr/include/stdlib.h, lines 592-594:	N360 -{void *aligned_alloc(size_t __alignment, size_t __size);}-> N361
/usr/include/stdlib.h, line 598:	N361 -{void abort();}-> N362
/usr/include/stdlib.h, line 602:	N362 -{int atexit(void (*__func)());}-> N363
/usr/include/stdlib.h, line 610:	N363 -{int at_quick_exit(void (*__func)());}-> N364
/usr/include/stdlib.h, lines 617-618:	N364 -{int on_exit(void (*__func)(int __status, void *__arg), void *__arg);}-> N365
/usr/include/stdlib.h, line 624:	N365 -{void exit(int __status);}-> N366
/usr/include/stdlib.h, line 630:	N366 -{void quick_exit(int __status);}-> N367
/usr/include/stdlib.h, line 636:	N367 -{void _Exit(int __status);}-> N368
/usr/include/stdlib.h, line 641:	N368 -{char *getenv(const char *__name);}-> N369
/usr/include/stdlib.h, line 654:	N369 -{int putenv(char *__string);}-> N370
/usr/include/stdlib.h, lines 660-661:	N370 -{int setenv(const char *__name, const char *__value, int __replace);}-> N371
/usr/include/stdlib.h, line 664:	N371 -{int unsetenv(const char *__name);}-> N372
/usr/include/stdlib.h, line 671:	N372 -{int clearenv();}-> N373
/usr/include/stdlib.h, line 682:	N373 -{char *mktemp(char *__template);}-> N374
/usr/include/stdlib.h, line 695:	N374 -{int mkstemp(char *__template);}-> N375
/usr/include/stdlib.h, line 717:	N375 -{int mkstemps(char *__template, int __suffixlen);}-> N376
/usr/include/stdlib.h, line 738:	N376 -{char *mkdtemp(char *__template);}-> N377
/usr/include/stdlib.h, line 791:	N377 -{int system(const char *__command);}-> N378
/usr/include/stdlib.h, lines 808-809:	N378 -{char *realpath(const char *__name, char *__resolved);}-> N379
/usr/include/stdlib.h, line 816:	N379 -{typedef int (*__compar_fn_t)(const void *, const void *);}-> N380
/usr/include/stdlib.h, lines 828-830:	N380 -{void *bsearch(const void *__key, const void *__base, size_t __nmemb, size_t __size, __compar_fn_t __compar);}-> N381
/usr/include/stdlib.h, lines 838-839:	N381 -{void qsort(void *__base, size_t __nmemb, size_t __size, __compar_fn_t __compar);}-> N382
/usr/include/stdlib.h, line 848:	N382 -{int abs(int __x);}-> N383
/usr/include/stdlib.h, line 849:	N383 -{long int labs(long int __x);}-> N384
/usr/include/stdlib.h, lines 852-853:	N384 -{long long int llabs(long long int __x);}-> N385
/usr/include/stdlib.h, lines 860-861:	N385 -{div_t div(int __numer, int __denom);}-> N386
/usr/include/stdlib.h, lines 862-863:	N386 -{ldiv_t ldiv(long int __numer, long int __denom);}-> N387
/usr/include/stdlib.h, lines 866-868:	N387 -{lldiv_t lldiv(long long int __numer, long long int __denom);}-> N388
/usr/include/stdlib.h, lines 880-881:	N388 -{char *ecvt(double __value, int __ndigit, int *__decpt, int *__sign);}-> N389
/usr/include/stdlib.h, lines 886-887:	N389 -{char *fcvt(double __value, int __ndigit, int *__decpt, int *__sign);}-> N390
/usr/include/stdlib.h, lines 892-893:	N390 -{char *gcvt(double __value, int __ndigit, char *__buf);}-> N391
/usr/include/stdlib.h, lines 898-900:	N391 -{char *qecvt(long double __value, int __ndigit, int *__decpt, int *__sign);}-> N392
/usr/include/stdlib.h, lines 901-903:	N392 -{char *qfcvt(long double __value, int __ndigit, int *__decpt, int *__sign);}-> N393
/usr/include/stdlib.h, lines 904-905:	N393 -{char *qgcvt(long double __value, int __ndigit, char *__buf);}-> N394
/usr/include/stdlib.h, lines 910-912:	N394 -{int ecvt_r(double __value, int __ndigit, int *__decpt, int *__sign, char *__buf, size_t __len);}-> N395
/usr/include/stdlib.h, lines 913-915:	N395 -{int fcvt_r(double __value, int __ndigit, int *__decpt, int *__sign, char *__buf, size_t __len);}-> N396
/usr/include/stdlib.h, lines 917-920:	N396 -{int qecvt_r(long double __value, int __ndigit, int *__decpt, int *__sign, char *__buf, size_t __len);}-> N397
/usr/include/stdlib.h, lines 921-924:	N397 -{int qfcvt_r(long double __value, int __ndigit, int *__decpt, int *__sign, char *__buf, size_t __len);}-> N398
/usr/include/stdlib.h, line 930:	N398 -{int mblen(const char *__s, size_t __n);}-> N399
/usr/include/stdlib.h, lines 933-934:	N399 -{int mbtowc(wchar_t *__pwc, const char *__s, size_t __n);}-> N400
/usr/include/stdlib.h, line 937:	N400 -{int wctomb(char *__s, wchar_t __wchar);}-> N401
/usr/include/stdlib.h, lines 941-943:	N401 -{size_t mbstowcs(wchar_t *__pwcs, const char *__s, size_t __n);}-> N402
/usr/include/stdlib.h, lines 945-949:	N402 -{size_t wcstombs(char *__s, const wchar_t *__pwcs, size_t __n);}-> N403
/usr/include/stdlib.h, line 956:	N403 -{int rpmatch(const char *__response);}-> N404
/usr/include/stdlib.h, lines 967-970:	N404 -{int getsubopt(char **__optionp, char * const *__tokens, char **__valuep);}-> N405
/usr/include/stdlib.h, lines 1013-1014:	N405 -{int getloadavg(double __loadavg[], int __nelem);}-> N406
line 7:	N406 -{typedef long long longlong;}-> N407
lines 10-14:	N407 -{void assume(int cond);}-> N408
line 17:	N408 -{int counter = 0;}-> N409
	counter == 0;
lines 19-59:	N409 -{int main();}-> N410
lines 68-71:	N410 -{void __assert_func(const char *file, int line, const char *func, const char *msg);}-> N411
none:	N411 -{Function start dummy edge}-> N38
line 20:	N38 -{_Bool bVar1;}-> N39
line 21:	N39 -{int iVar2;}-> N40
line 22:	N40 -{long lVar3;}-> N41
line 23:	N41 -{longlong xy;}-> N42
line 24:	N42 -{longlong yx;}-> N43
	yx == 0LL;
line 25:	N43 -{int Y;}-> N44
line 26:	N44 -{int tmp_var_2_int;}-> N45
	tmp_var_2_int == 0;
line 27:	N45 -{int X;}-> N46
	X == -2147483648U;
line 28:	N46 -{int tmp_var_1_int;}-> N47
line 29:	N47 -{longlong v;}-> N48
line 30:	N48 -{longlong y;}-> N49
line 31:	N49 -{longlong x;}-> N50
line 34:	N50 -{v = 0;}-> N51
	v == 0LL;
line 35:	N51 -{y = 0;}-> N52
	counter == 0;
	yx == 0LL;
	tmp_var_2_int == 0;
	X == -2147483648U;
	v == 0LL;
	y == 0LL;
line 38:	N52 -{while}-> N53
lines 38-51:	N53 -{_Bool __CPAchecker_TMP_0;}-> N56
line 38:	N56 -{iVar2 = counter + 1;}-> N57
	iVar2 == 1;
line 38:	N57 -{bVar1 = counter < 1;}-> N58
	bVar1 == 1;
line 38:	N58 -{counter = iVar2;}-> N59
	counter == 1;
line 38:	N59 -{__CPAchecker_TMP_0 = bVar1;}-> N60
	__CPAchecker_TMP_0 == 1;
	iVar2 == 1;
	bVar1 == 1;
	counter == 1;
line 38:	N60 -{[!(__CPAchecker_TMP_0 == 0)]}-> N54
	__CPAchecker_TMP_0 == 1;
	__CPAchecker_TMP_0 == 1;
line 39:	N54 -{[X != ((((long)yx) * 2) + ((((y * yx) - (v * tmp_var_2_int)) * 2) - ((long)tmp_var_2_int)))]}-> N62
	X == -2147483648U;
	X == -2147483648U;
(((long)yx) * 2) + ((((y * yx) - (v * tmp_var_2_int)) * 2) - ((long)tmp_var_2_int)) == 0
line 40:	N62 -{int __CPAchecker_TMP_3;}-> N63
line 40:	N63 -{}-> N65
line 40:	N65 -{__CPAchecker_TMP_3 = 0;}-> N67
line 40:	N67 -{4UL;}-> N68
line 40:	N68 -{}-> N71
line 40:	N71 -{__assert_fail("0 && \"2*yx - 2*xy - X + (long long) 2*Y - v == 0\"", "/home/zyl/biVerify/CPA_DATA2/C/F/llmfix/realOutput/iterationTry/bresenham-ll_unwindbound1_process_dc_iter1.c", 40, "__PRETTY_FUNCTION__");}-> N413
